(declare-const delta_y Int)
(declare-const delta_i Int)
(declare-const delta_j Int)
(declare-const delta_x Int)
(declare-const delta_tmp___0 Int)
(assert (exists
         ((|tmp___0'?1| Int) (|i'?2| Int) (|j'?3| Int) (phi_j?4 Int)
            (havoc?5 Int) (|y'?6| Int) (|x'?7| Int) (flag?8 Int) (i?9 Int)
            (y?10 Int) (x?11 Int) (j?12 Int) (tmp___0?13 Int))
         (and (<= (- i?9) 0) (<= (- y?10) 0) (<= (- x?11) 0) (<= (- j?12) 0)
                (= (+ (- x?11) y?10) 0) (< (+ j?12 -100000) 0)
                (or (< havoc?5 0) (< 0 havoc?5))
                (or (and (or (< flag?8 0) (< 0 flag?8))
                           (= (+ (- phi_j?4) j?12 y?10 2) 0))
                      (and (= flag?8 0) (= (+ (- phi_j?4) j?12 y?10 1) 0)))
                (= (+ |tmp___0'?1| (- havoc?5)) 0)
                (= (+ |i'?2| (- x?11) (- i?9) -1) 0)
                (= (+ |j'?3| (- phi_j?4)) 0) (= (+ |y'?6| (- y?10) -1) 0)
                (= (+ |x'?7| (- x?11) -1) 0) (= delta_x (+ |x'?7| (- x?11)))
                (= delta_y (+ |y'?6| (- y?10)))
                (= delta_j (+ |j'?3| (- j?12)))
                (= delta_i (+ |i'?2| (- i?9)))
                (= delta_tmp___0 (+ |tmp___0'?1| (- tmp___0?13))))))
(check-sat)
